npieces = 10;	
nplayers = 25;	
duration = [3, 7, 5, 8, 9, 3, 5, 1, 2, 8];
rehearsal = [[1, 1, 1, 1, 1, 0, 0, 1, 0, 0], [0, 1, 1, 1, 1, 1, 0, 1, 1, 1], [1, 1, 1, 1, 0, 0, 1, 1, 1, 1], [1, 1, 1, 0, 1, 1, 1, 1, 1, 1], [1, 1, 1, 0, 1, 1, 1, 1, 1, 0], [1, 1, 0, 0, 0, 0, 0, 1, 0, 0], [1, 0, 1, 1, 0, 0, 1, 0, 0, 1], [0, 1, 0, 1, 1, 0, 1, 0, 0, 1], [1, 1, 1, 0, 0, 0, 1, 0, 1, 1], [1, 0, 1, 1, 0, 1, 1, 0, 1, 1], [0, 0, 1, 1, 1, 0, 0, 1, 0, 1], [0, 1, 1, 0, 1, 0, 1, 0, 1, 1], [1, 1, 1, 1, 0, 1, 0, 1, 1, 1], [0, 1, 0, 1, 1, 0, 1, 1, 1, 1], [1, 1, 1, 1, 0, 1, 0, 1, 1, 1], [1, 0, 1, 0, 1, 1, 1, 1, 0, 0], [0, 1, 0, 1, 1, 1, 0, 1, 1, 1], [0, 1, 1, 1, 0, 1, 1, 1, 1, 1], [1, 0, 1, 1, 0, 1, 0, 0, 1, 1], [1, 1, 1, 1, 1, 1, 1, 0, 1, 1], [0, 0, 1, 0, 1, 1, 0, 1, 0, 1], [0, 0, 1, 0, 0, 1, 0, 0, 0, 1], [0, 0, 1, 0, 1, 1, 1, 0, 0, 1], [0, 0, 1, 0, 1, 0, 0, 1, 1, 0], [1, 1, 1, 1, 1, 0, 1, 1, 1, 0]];